
Gurobi 7.5.1 (mac64, Python) logging started Mon Nov 13 10:18:53 2017

Academic license - for non-commercial use only

Gurobi 7.5.1 (mac64, Python) logging started Mon Nov 13 10:19:55 2017

Academic license - for non-commercial use only

Gurobi 7.5.1 (mac64, Python) logging started Mon Nov 13 10:20:16 2017

Academic license - for non-commercial use only

Gurobi 7.5.1 (mac64, Python) logging started Mon Nov 13 10:22:28 2017

Academic license - for non-commercial use only

Gurobi 7.5.1 (mac64, Python) logging started Mon Nov 13 10:22:48 2017

Academic license - for non-commercial use only

Gurobi 7.5.1 (mac64, Python) logging started Mon Nov 13 13:12:36 2017

Academic license - for non-commercial use only

Gurobi 7.5.1 (mac64, Python) logging started Mon Nov 13 13:13:43 2017

Academic license - for non-commercial use only

Gurobi 7.5.1 (mac64, Python) logging started Mon Nov 13 13:15:40 2017

Academic license - for non-commercial use only

Gurobi 7.5.1 (mac64, Python) logging started Mon Nov 13 13:17:49 2017

Academic license - for non-commercial use only

Gurobi 7.5.1 (mac64, Python) logging started Mon Nov 13 13:30:37 2017

Academic license - for non-commercial use only

Gurobi 7.5.1 (mac64, Python) logging started Mon Nov 13 13:32:15 2017

Academic license - for non-commercial use only

Gurobi 7.5.1 (mac64, Python) logging started Mon Nov 13 13:33:18 2017

Academic license - for non-commercial use only

Gurobi 7.5.1 (mac64, Python) logging started Mon Nov 13 13:34:32 2017

Academic license - for non-commercial use only

Gurobi 7.5.1 (mac64, Python) logging started Mon Nov 13 13:38:51 2017

Academic license - for non-commercial use only

Gurobi 7.5.1 (mac64, Python) logging started Mon Nov 13 13:40:29 2017

Academic license - for non-commercial use only

Gurobi 7.5.1 (mac64, Python) logging started Mon Nov 13 13:42:50 2017

Academic license - for non-commercial use only

Gurobi 7.5.1 (mac64, Python) logging started Mon Nov 13 13:46:35 2017

Academic license - for non-commercial use only

Gurobi 7.5.1 (mac64, Python) logging started Mon Nov 13 13:57:43 2017

Academic license - for non-commercial use only

Gurobi 7.5.1 (mac64, Python) logging started Mon Nov 13 14:04:32 2017

Academic license - for non-commercial use only

Gurobi 7.5.1 (mac64, Python) logging started Mon Nov 13 14:08:57 2017

Academic license - for non-commercial use only

Gurobi 7.5.1 (mac64, Python) logging started Mon Nov 13 14:13:49 2017

Academic license - for non-commercial use only

Gurobi 7.5.1 (mac64, Python) logging started Mon Nov 13 14:16:26 2017

Academic license - for non-commercial use only

Gurobi 7.5.1 (mac64, Python) logging started Mon Nov 13 17:09:20 2017

Academic license - for non-commercial use only

Gurobi 7.5.1 (mac64, Python) logging started Mon Nov 13 17:14:33 2017

Academic license - for non-commercial use only

Gurobi 7.5.1 (mac64, Python) logging started Mon Nov 13 17:16:34 2017

Academic license - for non-commercial use only

Gurobi 7.5.1 (mac64, Python) logging started Mon Nov 13 17:27:43 2017

Academic license - for non-commercial use only

Gurobi 7.5.1 (mac64, Python) logging started Mon Nov 13 17:31:57 2017

Academic license - for non-commercial use only

Gurobi 7.5.1 (mac64, Python) logging started Mon Nov 13 19:12:56 2017

Academic license - for non-commercial use only

Gurobi 7.5.1 (mac64, Python) logging started Mon Nov 13 19:21:24 2017

Academic license - for non-commercial use only

Gurobi 7.5.1 (mac64, Python) logging started Mon Nov 13 19:22:11 2017

Academic license - for non-commercial use only

Gurobi 7.5.1 (mac64, Python) logging started Mon Nov 13 19:31:48 2017

Academic license - for non-commercial use only

Gurobi 7.5.1 (mac64, Python) logging started Mon Nov 13 19:33:58 2017

Academic license - for non-commercial use only

Gurobi 7.5.1 (mac64, Python) logging started Mon Nov 13 19:35:12 2017

Academic license - for non-commercial use only

Gurobi 7.5.1 (mac64, Python) logging started Mon Nov 13 19:37:59 2017

Academic license - for non-commercial use only

Gurobi 7.5.1 (mac64, Python) logging started Mon Nov 13 19:42:03 2017

Academic license - for non-commercial use only

Gurobi 7.5.1 (mac64, Python) logging started Mon Nov 13 19:45:19 2017

Academic license - for non-commercial use only

Gurobi 7.5.1 (mac64, Python) logging started Mon Nov 13 19:45:38 2017

Academic license - for non-commercial use only

Gurobi 7.5.1 (mac64, Python) logging started Mon Nov 13 19:46:34 2017

Academic license - for non-commercial use only

Gurobi 7.5.1 (mac64, Python) logging started Mon Nov 13 19:48:52 2017

Academic license - for non-commercial use only

Gurobi 7.5.1 (mac64, Python) logging started Mon Nov 13 19:51:53 2017

Academic license - for non-commercial use only

Gurobi 7.5.1 (mac64, Python) logging started Mon Nov 13 19:53:01 2017

Academic license - for non-commercial use only

Gurobi 7.5.1 (mac64, Python) logging started Mon Nov 13 19:53:30 2017

Academic license - for non-commercial use only

Gurobi 7.5.1 (mac64, Python) logging started Mon Nov 13 19:54:11 2017

Academic license - for non-commercial use only

Gurobi 7.5.1 (mac64, Python) logging started Mon Nov 13 19:55:16 2017

Academic license - for non-commercial use only

Gurobi 7.5.1 (mac64, Python) logging started Mon Nov 13 19:58:49 2017

Academic license - for non-commercial use only

Gurobi 7.5.1 (mac64, Python) logging started Thu Nov 23 12:31:47 2017

Academic license - for non-commercial use only

Gurobi 7.5.1 (mac64, Python) logging started Thu Nov 23 12:34:04 2017

Academic license - for non-commercial use only

Gurobi 7.5.1 (mac64, Python) logging started Thu Nov 23 12:34:52 2017

Academic license - for non-commercial use only

Gurobi 7.5.1 (mac64, Python) logging started Thu Nov 23 12:38:38 2017

Academic license - for non-commercial use only

Gurobi 7.5.1 (mac64, Python) logging started Thu Nov 23 12:39:27 2017

Academic license - for non-commercial use only

Gurobi 7.5.1 (mac64, Python) logging started Thu Nov 23 12:39:59 2017

Academic license - for non-commercial use only

Gurobi 7.5.1 (mac64, Python) logging started Thu Nov 23 12:40:22 2017

Academic license - for non-commercial use only

Gurobi 7.5.1 (mac64, Python) logging started Thu Nov 23 12:41:42 2017

Academic license - for non-commercial use only

Gurobi 7.5.1 (mac64, Python) logging started Thu Nov 23 13:01:28 2017

Academic license - for non-commercial use only

Gurobi 7.5.1 (mac64, Python) logging started Thu Nov 23 13:05:12 2017

Academic license - for non-commercial use only

Gurobi 7.5.1 (mac64, Python) logging started Thu Nov 23 13:08:10 2017

Academic license - for non-commercial use only

Gurobi 7.5.1 (mac64, Python) logging started Thu Nov 23 13:09:05 2017

Academic license - for non-commercial use only

Gurobi 7.5.1 (mac64, Python) logging started Thu Nov 23 13:13:05 2017

Academic license - for non-commercial use only

Gurobi 7.5.1 (mac64, Python) logging started Thu Nov 23 13:14:55 2017

Academic license - for non-commercial use only

Gurobi 7.5.1 (mac64, Python) logging started Thu Nov 23 13:15:02 2017

Academic license - for non-commercial use only

Gurobi 7.5.1 (mac64, Python) logging started Thu Nov 23 13:15:10 2017

Academic license - for non-commercial use only

Gurobi 7.5.1 (mac64, Python) logging started Thu Nov 23 13:15:17 2017

Academic license - for non-commercial use only

Gurobi 7.5.1 (mac64, Python) logging started Thu Nov 23 13:15:23 2017

Academic license - for non-commercial use only

Gurobi 7.5.1 (mac64, Python) logging started Thu Nov 23 13:15:30 2017

Academic license - for non-commercial use only

Gurobi 7.5.1 (mac64, Python) logging started Thu Nov 23 13:16:06 2017

Academic license - for non-commercial use only

Gurobi 7.5.1 (mac64, Python) logging started Thu Nov 23 13:16:12 2017

Academic license - for non-commercial use only

Gurobi 7.5.1 (mac64, Python) logging started Thu Nov 23 13:16:17 2017

Academic license - for non-commercial use only

Gurobi 7.5.1 (mac64, Python) logging started Thu Nov 23 13:16:28 2017

Academic license - for non-commercial use only

Gurobi 7.5.1 (mac64, Python) logging started Thu Nov 23 13:17:20 2017

Academic license - for non-commercial use only

Gurobi 7.5.1 (mac64, Python) logging started Thu Nov 23 13:19:56 2017

Academic license - for non-commercial use only

Gurobi 7.5.1 (mac64, Python) logging started Thu Nov 23 13:30:17 2017

Academic license - for non-commercial use only

Gurobi 7.5.1 (mac64, Python) logging started Thu Nov 23 13:31:48 2017

Academic license - for non-commercial use only

Gurobi 7.5.1 (mac64, Python) logging started Thu Nov 23 13:32:49 2017

Academic license - for non-commercial use only

Gurobi 7.5.1 (mac64, Python) logging started Thu Nov 23 13:39:11 2017

Academic license - for non-commercial use only

Gurobi 7.5.1 (mac64, Python) logging started Thu Nov 23 13:39:45 2017

Academic license - for non-commercial use only

Gurobi 7.5.1 (mac64, Python) logging started Thu Nov 23 13:41:27 2017

Academic license - for non-commercial use only

Gurobi 7.5.1 (mac64, Python) logging started Thu Nov 23 13:43:11 2017

Academic license - for non-commercial use only

Gurobi 7.5.1 (mac64, Python) logging started Thu Nov 23 13:44:28 2017

Academic license - for non-commercial use only

Gurobi 7.5.1 (mac64, Python) logging started Thu Nov 23 13:44:38 2017

Academic license - for non-commercial use only

Gurobi 7.5.1 (mac64, Python) logging started Thu Nov 23 13:45:35 2017

Academic license - for non-commercial use only

Gurobi 7.5.1 (mac64, Python) logging started Thu Nov 23 13:46:15 2017

Academic license - for non-commercial use only

Gurobi 7.5.1 (mac64, Python) logging started Thu Nov 23 13:54:31 2017

Academic license - for non-commercial use only

Gurobi 7.5.1 (mac64, Python) logging started Thu Nov 23 13:56:01 2017

Academic license - for non-commercial use only

Gurobi 7.5.1 (mac64, Python) logging started Thu Nov 23 13:56:41 2017

Academic license - for non-commercial use only

Gurobi 7.5.1 (mac64, Python) logging started Thu Nov 23 13:58:15 2017

Academic license - for non-commercial use only

Gurobi 7.5.1 (mac64, Python) logging started Thu Nov 23 14:02:02 2017

Academic license - for non-commercial use only

Gurobi 7.5.1 (mac64, Python) logging started Thu Nov 23 14:08:05 2017

Academic license - for non-commercial use only

Gurobi 7.5.1 (mac64, Python) logging started Thu Nov 23 14:16:05 2017

Academic license - for non-commercial use only

Gurobi 7.5.1 (mac64, Python) logging started Thu Nov 23 14:24:05 2017

Academic license - for non-commercial use only

Gurobi 7.5.1 (mac64, Python) logging started Thu Nov 23 14:26:05 2017

Academic license - for non-commercial use only

Gurobi 7.5.1 (mac64, Python) logging started Thu Nov 23 14:28:05 2017

Academic license - for non-commercial use only

Gurobi 7.5.1 (mac64, Python) logging started Thu Nov 23 14:36:05 2017

Academic license - for non-commercial use only

Gurobi 7.5.1 (mac64, Python) logging started Thu Nov 23 14:40:01 2017

Academic license - for non-commercial use only

Gurobi 7.5.1 (mac64, Python) logging started Thu Nov 23 14:41:49 2017

Academic license - for non-commercial use only

Gurobi 7.5.1 (mac64, Python) logging started Thu Nov 23 14:42:07 2017

Academic license - for non-commercial use only

Gurobi 7.5.1 (mac64, Python) logging started Thu Nov 23 14:42:17 2017

Academic license - for non-commercial use only

Gurobi 7.5.1 (mac64, Python) logging started Thu Nov 23 14:42:30 2017

Academic license - for non-commercial use only

Gurobi 7.5.1 (mac64, Python) logging started Thu Nov 23 14:46:15 2017

Academic license - for non-commercial use only

Gurobi 7.5.1 (mac64, Python) logging started Thu Nov 23 14:46:29 2017

Academic license - for non-commercial use only

Gurobi 7.5.1 (mac64, Python) logging started Thu Nov 23 14:46:36 2017

Academic license - for non-commercial use only

Gurobi 7.5.1 (mac64, Python) logging started Thu Nov 23 14:47:30 2017

Academic license - for non-commercial use only

Gurobi 7.5.1 (mac64, Python) logging started Thu Nov 23 14:49:35 2017

Academic license - for non-commercial use only

Gurobi 7.5.1 (mac64, Python) logging started Thu Nov 23 14:49:57 2017

Academic license - for non-commercial use only

Gurobi 7.5.1 (mac64, Python) logging started Thu Nov 23 14:50:21 2017

Academic license - for non-commercial use only

Gurobi 7.5.1 (mac64, Python) logging started Thu Nov 23 14:50:33 2017

Academic license - for non-commercial use only

Gurobi 7.5.1 (mac64, Python) logging started Thu Nov 23 14:50:53 2017

Academic license - for non-commercial use only

Gurobi 7.5.1 (mac64, Python) logging started Thu Nov 23 14:51:13 2017

Academic license - for non-commercial use only

Gurobi 7.5.1 (mac64, Python) logging started Thu Nov 23 14:51:19 2017

Academic license - for non-commercial use only

Gurobi 7.5.1 (mac64, Python) logging started Thu Nov 23 14:51:25 2017

Academic license - for non-commercial use only

Gurobi 7.5.1 (mac64, Python) logging started Thu Nov 23 14:51:32 2017

Academic license - for non-commercial use only

Gurobi 7.5.1 (mac64, Python) logging started Thu Nov 23 14:59:19 2017

Academic license - for non-commercial use only

Gurobi 7.5.1 (mac64, Python) logging started Thu Nov 23 15:02:30 2017

Academic license - for non-commercial use only

Gurobi 7.5.1 (mac64, Python) logging started Thu Nov 23 15:08:30 2017

Academic license - for non-commercial use only

Gurobi 7.5.1 (mac64, Python) logging started Thu Nov 23 15:14:00 2017

Academic license - for non-commercial use only

Gurobi 7.5.1 (mac64, Python) logging started Thu Nov 23 15:14:12 2017

Academic license - for non-commercial use only

Gurobi 7.5.1 (mac64, Python) logging started Thu Nov 23 15:14:25 2017

Academic license - for non-commercial use only

Gurobi 7.5.1 (mac64, Python) logging started Thu Nov 23 15:14:37 2017

Academic license - for non-commercial use only

Gurobi 7.5.1 (mac64, Python) logging started Thu Nov 23 15:17:02 2017

Academic license - for non-commercial use only

Gurobi 7.5.1 (mac64, Python) logging started Thu Nov 23 15:17:59 2017

Academic license - for non-commercial use only

Gurobi 7.5.1 (mac64, Python) logging started Thu Nov 23 15:23:27 2017

Academic license - for non-commercial use only

Gurobi 7.5.1 (mac64, Python) logging started Thu Nov 23 15:25:57 2017

Academic license - for non-commercial use only

Gurobi 7.5.1 (mac64, Python) logging started Thu Nov 23 15:29:40 2017

Academic license - for non-commercial use only

Gurobi 7.5.1 (mac64, Python) logging started Thu Nov 23 15:30:48 2017

Academic license - for non-commercial use only

Gurobi 7.5.1 (mac64, Python) logging started Thu Nov 23 15:31:53 2017

Academic license - for non-commercial use only

Gurobi 7.5.1 (mac64, Python) logging started Thu Nov 23 15:32:04 2017

Academic license - for non-commercial use only

Gurobi 7.5.1 (mac64, Python) logging started Thu Nov 23 15:32:33 2017

Academic license - for non-commercial use only

Gurobi 7.5.1 (mac64, Python) logging started Thu Nov 23 15:35:07 2017

Academic license - for non-commercial use only

Gurobi 7.5.1 (mac64, Python) logging started Thu Nov 23 21:37:10 2017

Academic license - for non-commercial use only

Gurobi 7.5.1 (mac64, Python) logging started Thu Nov 23 21:39:50 2017

Academic license - for non-commercial use only

Gurobi 7.5.1 (mac64, Python) logging started Thu Nov 23 21:43:25 2017

Academic license - for non-commercial use only

Gurobi 7.5.1 (mac64, Python) logging started Thu Nov 23 21:59:58 2017

Academic license - for non-commercial use only

Gurobi 7.5.1 (mac64, Python) logging started Thu Nov 23 22:01:16 2017

Academic license - for non-commercial use only

Gurobi 7.5.1 (mac64, Python) logging started Thu Nov 23 22:20:42 2017

Academic license - for non-commercial use only

Gurobi 7.5.1 (mac64, Python) logging started Thu Nov 23 22:35:05 2017

Academic license - for non-commercial use only

Gurobi 7.5.1 (mac64, Python) logging started Thu Nov 23 22:40:05 2017

Academic license - for non-commercial use only

Gurobi 7.5.1 (mac64, Python) logging started Fri Nov 24 09:50:05 2017

Academic license - for non-commercial use only

Gurobi 7.5.1 (mac64, Python) logging started Sat Nov 25 16:35:05 2017

Academic license - for non-commercial use only

Gurobi 7.5.1 (mac64, Python) logging started Thu Nov 30 19:53:44 2017

Academic license - for non-commercial use only

Gurobi 7.5.1 (mac64, Python) logging started Thu Nov 30 20:00:03 2017

Academic license - for non-commercial use only

Gurobi 7.5.1 (mac64, Python) logging started Thu Nov 30 20:00:24 2017

Academic license - for non-commercial use only

Gurobi 7.5.1 (mac64, Python) logging started Thu Nov 30 20:02:19 2017

Academic license - for non-commercial use only

Gurobi 7.5.1 (mac64, Python) logging started Thu Nov 30 20:06:05 2017

Academic license - for non-commercial use only

Gurobi 7.5.1 (mac64, Python) logging started Thu Nov 30 20:12:07 2017

Academic license - for non-commercial use only

Gurobi 7.5.1 (mac64, Python) logging started Thu Nov 30 20:14:54 2017

Academic license - for non-commercial use only

Gurobi 7.5.1 (mac64, Python) logging started Thu Nov 30 20:21:02 2017

Academic license - for non-commercial use only

Gurobi 7.5.1 (mac64, Python) logging started Thu Nov 30 20:21:12 2017

Academic license - for non-commercial use only

Gurobi 7.5.1 (mac64, Python) logging started Thu Nov 30 20:21:19 2017

Academic license - for non-commercial use only

Gurobi 7.5.1 (mac64, Python) logging started Thu Nov 30 20:21:25 2017

Academic license - for non-commercial use only

Gurobi 7.5.1 (mac64, Python) logging started Thu Nov 30 20:21:40 2017

Academic license - for non-commercial use only

Gurobi 7.5.1 (mac64, Python) logging started Thu Nov 30 20:24:42 2017

Academic license - for non-commercial use only

Gurobi 7.5.1 (mac64, Python) logging started Thu Nov 30 20:29:33 2017

Academic license - for non-commercial use only

Gurobi 7.5.1 (mac64, Python) logging started Thu Nov 30 20:33:07 2017

Academic license - for non-commercial use only

Gurobi 7.5.1 (mac64, Python) logging started Thu Nov 30 20:34:43 2017

Academic license - for non-commercial use only

Gurobi 7.5.1 (mac64, Python) logging started Thu Nov 30 20:41:07 2017

Academic license - for non-commercial use only

Gurobi 7.5.1 (mac64, Python) logging started Fri Dec  1 08:56:28 2017

Academic license - for non-commercial use only

Gurobi 7.5.1 (mac64, Python) logging started Fri Dec  1 09:03:28 2017

Academic license - for non-commercial use only

Gurobi 7.5.1 (mac64, Python) logging started Fri Dec  1 09:11:39 2017

Academic license - for non-commercial use only

Gurobi 7.5.1 (mac64, Python) logging started Fri Dec  1 09:12:42 2017

Academic license - for non-commercial use only

Gurobi 7.5.1 (mac64, Python) logging started Sat Dec  2 11:34:42 2017

Academic license - for non-commercial use only

Gurobi 7.5.1 (mac64, Python) logging started Sun Dec  3 08:36:06 2017

Academic license - for non-commercial use only

Gurobi 7.5.1 (mac64, Python) logging started Sun Dec  3 08:41:52 2017

Academic license - for non-commercial use only

Gurobi 7.5.1 (mac64, Python) logging started Sun Dec  3 09:01:35 2017

Academic license - for non-commercial use only

Gurobi 7.5.1 (mac64, Python) logging started Sun Dec  3 09:02:03 2017

Academic license - for non-commercial use only

Gurobi 7.5.1 (mac64, Python) logging started Sun Dec  3 09:04:01 2017

Academic license - for non-commercial use only

Gurobi 7.5.1 (mac64, Python) logging started Sun Dec  3 22:16:37 2017

Academic license - for non-commercial use only

Gurobi 7.5.1 (mac64, Python) logging started Sun Dec  3 22:17:17 2017

Academic license - for non-commercial use only

Gurobi 7.5.1 (mac64, Python) logging started Sun Dec  3 22:18:25 2017

Academic license - for non-commercial use only

Gurobi 7.5.1 (mac64, Python) logging started Sun Dec  3 22:20:22 2017

Academic license - for non-commercial use only

Gurobi 7.5.1 (mac64, Python) logging started Sun Dec  3 22:21:36 2017

Academic license - for non-commercial use only

Gurobi 7.5.1 (mac64, Python) logging started Sun Dec  3 22:23:08 2017

Academic license - for non-commercial use only

Gurobi 7.5.1 (mac64, Python) logging started Sun Dec  3 22:24:16 2017

Academic license - for non-commercial use only

Gurobi 7.5.1 (mac64, Python) logging started Sun Dec  3 22:25:20 2017

Academic license - for non-commercial use only

Gurobi 7.5.1 (mac64, Python) logging started Sun Dec  3 22:26:01 2017

Academic license - for non-commercial use only

Gurobi 7.5.1 (mac64, Python) logging started Sun Dec  3 22:27:15 2017

Academic license - for non-commercial use only

Gurobi 7.5.1 (mac64, Python) logging started Sun Dec  3 22:28:17 2017

Academic license - for non-commercial use only

Gurobi 7.5.1 (mac64, Python) logging started Sun Dec  3 22:29:42 2017

Academic license - for non-commercial use only

Gurobi 7.5.1 (mac64, Python) logging started Sun Dec  3 22:30:27 2017

Academic license - for non-commercial use only

Gurobi 7.5.1 (mac64, Python) logging started Sun Dec  3 22:49:25 2017

Academic license - for non-commercial use only

Gurobi 7.5.1 (mac64, Python) logging started Sun Dec  3 22:51:14 2017

Academic license - for non-commercial use only

Gurobi 7.5.1 (mac64, Python) logging started Sun Dec  3 22:53:56 2017

Academic license - for non-commercial use only

Gurobi 7.5.1 (mac64, Python) logging started Sun Dec  3 22:55:48 2017

Academic license - for non-commercial use only

Gurobi 7.5.1 (mac64, Python) logging started Sun Dec  3 22:56:12 2017

Academic license - for non-commercial use only

Gurobi 7.5.1 (mac64, Python) logging started Sun Dec  3 22:57:29 2017

Academic license - for non-commercial use only

Gurobi 7.5.1 (mac64, Python) logging started Sun Dec  3 23:04:32 2017

Academic license - for non-commercial use only

Gurobi 7.5.1 (mac64, Python) logging started Sun Dec  3 23:08:40 2017

Academic license - for non-commercial use only

Gurobi 7.5.1 (mac64, Python) logging started Sun Dec  3 23:09:41 2017

Academic license - for non-commercial use only

Gurobi 7.5.1 (mac64, Python) logging started Sun Dec  3 23:09:54 2017

Academic license - for non-commercial use only

Gurobi 7.5.1 (mac64, Python) logging started Sun Dec  3 23:13:23 2017

Academic license - for non-commercial use only

Gurobi 7.5.1 (mac64, Python) logging started Sun Dec  3 23:15:03 2017

Academic license - for non-commercial use only

Gurobi 7.5.1 (mac64, Python) logging started Mon Dec  4 09:32:45 2017

Academic license - for non-commercial use only

Gurobi 7.5.1 (mac64, Python) logging started Tue Dec  5 09:43:23 2017

Academic license - for non-commercial use only

Gurobi 7.5.1 (mac64, Python) logging started Tue Dec  5 17:12:18 2017

Academic license - for non-commercial use only

Gurobi 7.5.1 (mac64, Python) logging started Tue Dec  5 17:13:16 2017

Academic license - for non-commercial use only

Gurobi 7.5.1 (mac64, Python) logging started Tue Dec  5 18:39:02 2017

Academic license - for non-commercial use only

Gurobi 7.5.1 (mac64, Python) logging started Tue Dec  5 18:40:01 2017

Academic license - for non-commercial use only

Gurobi 7.5.1 (mac64, Python) logging started Tue Dec  5 18:41:52 2017

Academic license - for non-commercial use only

Gurobi 7.5.1 (mac64, Python) logging started Tue Dec  5 18:45:01 2017

Academic license - for non-commercial use only

Gurobi 7.5.1 (mac64, Python) logging started Tue Dec  5 18:45:36 2017

Academic license - for non-commercial use only

Gurobi 7.5.1 (mac64, Python) logging started Tue Dec  5 18:47:37 2017

Academic license - for non-commercial use only

Gurobi 7.5.1 (mac64, Python) logging started Tue Dec  5 18:48:13 2017

Academic license - for non-commercial use only

Gurobi 7.5.1 (mac64, Python) logging started Tue Dec  5 18:48:43 2017

Academic license - for non-commercial use only

Gurobi 7.5.1 (mac64, Python) logging started Tue Dec  5 19:19:23 2017

Academic license - for non-commercial use only

Gurobi 7.5.1 (mac64, Python) logging started Tue Dec  5 19:20:15 2017

Academic license - for non-commercial use only

Gurobi 7.5.1 (mac64, Python) logging started Tue Dec  5 19:23:51 2017

Academic license - for non-commercial use only

Gurobi 7.5.1 (mac64, Python) logging started Tue Dec  5 19:24:25 2017

Academic license - for non-commercial use only

Gurobi 7.5.1 (mac64, Python) logging started Tue Dec  5 19:26:49 2017

Academic license - for non-commercial use only

Gurobi 7.5.1 (mac64, Python) logging started Tue Dec  5 19:31:11 2017

Academic license - for non-commercial use only

Gurobi 7.5.1 (mac64, Python) logging started Tue Dec  5 19:32:38 2017

Academic license - for non-commercial use only

Gurobi 7.5.1 (mac64, Python) logging started Tue Dec  5 19:33:57 2017

Academic license - for non-commercial use only

Gurobi 7.5.1 (mac64, Python) logging started Tue Dec  5 19:35:36 2017

Academic license - for non-commercial use only

Gurobi 7.5.1 (mac64, Python) logging started Tue Dec  5 19:42:10 2017

Academic license - for non-commercial use only

Gurobi 7.5.1 (mac64, Python) logging started Tue Dec  5 19:43:15 2017

Academic license - for non-commercial use only

Gurobi 7.5.1 (mac64, Python) logging started Tue Dec  5 19:46:33 2017

Academic license - for non-commercial use only

Gurobi 7.5.1 (mac64, Python) logging started Tue Dec  5 19:51:26 2017

Academic license - for non-commercial use only

Gurobi 7.5.1 (mac64, Python) logging started Tue Dec  5 19:55:33 2017

Academic license - for non-commercial use only

Gurobi 7.5.1 (mac64, Python) logging started Tue Dec  5 19:56:20 2017

Academic license - for non-commercial use only

Gurobi 7.5.1 (mac64, Python) logging started Tue Dec  5 20:00:12 2017

Academic license - for non-commercial use only

Gurobi 7.5.1 (mac64, Python) logging started Tue Dec  5 20:02:47 2017

Academic license - for non-commercial use only

Gurobi 7.5.1 (mac64, Python) logging started Tue Dec  5 20:04:44 2017

Academic license - for non-commercial use only

Gurobi 7.5.1 (mac64, Python) logging started Tue Dec  5 20:07:09 2017

Academic license - for non-commercial use only

Gurobi 7.5.1 (mac64, Python) logging started Tue Dec  5 20:09:02 2017

Academic license - for non-commercial use only

Gurobi 7.5.1 (mac64, Python) logging started Tue Dec  5 20:10:25 2017

Academic license - for non-commercial use only

Gurobi 7.5.1 (mac64, Python) logging started Tue Dec  5 20:12:28 2017

Academic license - for non-commercial use only

Gurobi 7.5.1 (mac64, Python) logging started Tue Dec  5 20:16:06 2017

Academic license - for non-commercial use only

Gurobi 7.5.1 (mac64, Python) logging started Tue Dec  5 20:18:49 2017

Academic license - for non-commercial use only

Gurobi 7.5.1 (mac64, Python) logging started Tue Dec  5 20:19:11 2017

Academic license - for non-commercial use only

Gurobi 7.5.1 (mac64, Python) logging started Tue Dec  5 20:20:07 2017

Academic license - for non-commercial use only

Gurobi 7.5.1 (mac64, Python) logging started Wed Dec  6 10:35:36 2017

Academic license - for non-commercial use only

Gurobi 7.5.1 (mac64, Python) logging started Wed Dec  6 10:36:24 2017

Academic license - for non-commercial use only

Gurobi 7.5.1 (mac64, Python) logging started Wed Dec  6 12:10:36 2017

Academic license - for non-commercial use only

Gurobi 7.5.1 (mac64, Python) logging started Wed Dec  6 12:12:18 2017

Academic license - for non-commercial use only

Gurobi 7.5.1 (mac64, Python) logging started Wed Dec  6 12:12:38 2017

Academic license - for non-commercial use only

Gurobi 7.5.1 (mac64, Python) logging started Wed Dec  6 12:13:03 2017

Academic license - for non-commercial use only

Gurobi 7.5.1 (mac64, Python) logging started Wed Dec  6 12:14:00 2017

Academic license - for non-commercial use only

Gurobi 7.5.1 (mac64, Python) logging started Wed Dec  6 12:15:35 2017

Academic license - for non-commercial use only

Gurobi 7.5.1 (mac64, Python) logging started Wed Dec  6 12:16:08 2017

Academic license - for non-commercial use only

Gurobi 7.5.1 (mac64, Python) logging started Wed Dec  6 12:17:03 2017

Academic license - for non-commercial use only

Gurobi 7.5.1 (mac64, Python) logging started Wed Dec  6 12:17:47 2017

Academic license - for non-commercial use only

Gurobi 7.5.1 (mac64, Python) logging started Wed Dec  6 12:21:31 2017

Academic license - for non-commercial use only

Gurobi 7.5.1 (mac64, Python) logging started Wed Dec  6 13:13:08 2017

Academic license - for non-commercial use only

Gurobi 7.5.1 (mac64, Python) logging started Wed Dec  6 13:14:38 2017

Academic license - for non-commercial use only

Gurobi 7.5.1 (mac64, Python) logging started Wed Dec  6 22:35:55 2017

Academic license - for non-commercial use only

Gurobi 7.5.1 (mac64, Python) logging started Wed Dec  6 22:36:40 2017

Academic license - for non-commercial use only

Gurobi 7.5.1 (mac64, Python) logging started Wed Dec  6 22:37:22 2017

Academic license - for non-commercial use only

Gurobi 7.5.1 (mac64, Python) logging started Wed Dec  6 22:41:50 2017

Academic license - for non-commercial use only

Gurobi 7.5.1 (mac64, Python) logging started Wed Dec  6 22:42:30 2017

Academic license - for non-commercial use only

Gurobi 7.5.1 (mac64, Python) logging started Wed Dec  6 22:47:36 2017

Academic license - for non-commercial use only

Gurobi 7.5.1 (mac64, Python) logging started Wed Dec  6 23:15:44 2017

Academic license - for non-commercial use only

Gurobi 7.5.1 (mac64, Python) logging started Wed Dec  6 23:16:12 2017

Academic license - for non-commercial use only

Gurobi 7.5.1 (mac64, Python) logging started Wed Dec  6 23:16:37 2017

Academic license - for non-commercial use only

Gurobi 7.5.1 (mac64, Python) logging started Wed Dec  6 23:22:04 2017

Academic license - for non-commercial use only

Gurobi 7.5.1 (mac64, Python) logging started Wed Dec  6 23:24:40 2017

Academic license - for non-commercial use only

Gurobi 7.5.1 (mac64, Python) logging started Wed Dec  6 23:28:20 2017

Academic license - for non-commercial use only

Gurobi 7.5.1 (mac64, Python) logging started Thu Dec  7 08:49:22 2017

Academic license - for non-commercial use only

Gurobi 7.5.1 (mac64, Python) logging started Thu Dec  7 09:24:58 2017

Academic license - for non-commercial use only

Gurobi 7.5.1 (mac64, Python) logging started Thu Dec  7 09:25:24 2017

Academic license - for non-commercial use only

Gurobi 7.5.1 (mac64, Python) logging started Thu Dec  7 09:26:30 2017

Academic license - for non-commercial use only

Gurobi 7.5.1 (mac64, Python) logging started Thu Dec  7 14:03:42 2017

Academic license - for non-commercial use only

Gurobi 7.5.1 (mac64, Python) logging started Thu Dec  7 14:04:42 2017

Academic license - for non-commercial use only

Gurobi 7.5.1 (mac64, Python) logging started Thu Dec  7 14:05:37 2017

Academic license - for non-commercial use only

Gurobi 7.5.1 (mac64, Python) logging started Thu Dec  7 14:06:47 2017

Academic license - for non-commercial use only

Gurobi 7.5.1 (mac64, Python) logging started Fri Dec  8 10:03:57 2017

Academic license - for non-commercial use only

Gurobi 7.5.1 (mac64, Python) logging started Fri Dec  8 10:04:46 2017

Academic license - for non-commercial use only

Gurobi 7.5.1 (mac64, Python) logging started Fri Dec  8 10:07:58 2017

Academic license - for non-commercial use only

Gurobi 7.5.1 (mac64, Python) logging started Fri Dec  8 10:09:56 2017

Academic license - for non-commercial use only

Gurobi 7.5.1 (mac64, Python) logging started Fri Dec  8 10:18:28 2017

Academic license - for non-commercial use only

Gurobi 7.5.1 (mac64, Python) logging started Fri Dec  8 10:22:28 2017

Academic license - for non-commercial use only

Gurobi 7.5.1 (mac64, Python) logging started Fri Dec  8 10:25:17 2017

Academic license - for non-commercial use only

Gurobi 7.5.1 (mac64, Python) logging started Fri Dec  8 10:26:25 2017

Academic license - for non-commercial use only

Gurobi 7.5.1 (mac64, Python) logging started Fri Dec  8 10:29:45 2017

Academic license - for non-commercial use only

Gurobi 7.5.1 (mac64, Python) logging started Fri Dec  8 10:42:42 2017

Academic license - for non-commercial use only

Gurobi 7.5.1 (mac64, Python) logging started Fri Dec  8 10:47:38 2017

Academic license - for non-commercial use only

Gurobi 7.5.1 (mac64, Python) logging started Fri Dec  8 10:51:06 2017

Academic license - for non-commercial use only

Gurobi 7.5.1 (mac64, Python) logging started Fri Dec  8 10:54:57 2017

Academic license - for non-commercial use only

Gurobi 7.5.1 (mac64, Python) logging started Fri Dec  8 11:05:58 2017

Academic license - for non-commercial use only

Gurobi 7.5.1 (mac64, Python) logging started Fri Dec  8 12:08:13 2017

Academic license - for non-commercial use only

Gurobi 7.5.1 (mac64, Python) logging started Fri Dec  8 12:10:55 2017

Academic license - for non-commercial use only

Gurobi 7.5.1 (mac64, Python) logging started Fri Dec  8 12:12:22 2017

Academic license - for non-commercial use only

Gurobi 7.5.1 (mac64, Python) logging started Fri Dec  8 12:12:46 2017

Academic license - for non-commercial use only

Gurobi 7.5.1 (mac64, Python) logging started Fri Dec  8 12:29:53 2017

Academic license - for non-commercial use only

Gurobi 7.5.1 (mac64, Python) logging started Fri Dec  8 12:43:24 2017

Academic license - for non-commercial use only

Gurobi 7.5.1 (mac64, Python) logging started Fri Dec  8 17:09:22 2017

Academic license - for non-commercial use only

Gurobi 7.5.1 (mac64, Python) logging started Fri Dec  8 17:09:59 2017

Academic license - for non-commercial use only

Gurobi 7.5.1 (mac64, Python) logging started Fri Dec  8 17:11:39 2017

Academic license - for non-commercial use only

Gurobi 7.5.1 (mac64, Python) logging started Fri Dec  8 17:16:59 2017

Academic license - for non-commercial use only

Gurobi 7.5.1 (mac64, Python) logging started Fri Dec  8 17:22:17 2017

Academic license - for non-commercial use only

Gurobi 7.5.1 (mac64, Python) logging started Fri Dec  8 17:25:06 2017

Academic license - for non-commercial use only

Gurobi 7.5.1 (mac64, Python) logging started Fri Dec  8 17:25:55 2017

Academic license - for non-commercial use only

Gurobi 7.5.1 (mac64, Python) logging started Fri Dec  8 19:47:40 2017

Academic license - for non-commercial use only

Gurobi 7.5.1 (mac64, Python) logging started Fri Dec  8 19:50:11 2017

Academic license - for non-commercial use only

Gurobi 7.5.1 (mac64, Python) logging started Fri Dec  8 19:51:08 2017

Academic license - for non-commercial use only

Gurobi 7.5.1 (mac64, Python) logging started Fri Dec  8 20:24:01 2017

Academic license - for non-commercial use only

Gurobi 7.5.1 (mac64, Python) logging started Fri Dec  8 20:30:12 2017

Academic license - for non-commercial use only

Gurobi 7.5.1 (mac64, Python) logging started Fri Dec  8 20:44:25 2017

Academic license - for non-commercial use only

Gurobi 7.5.1 (mac64, Python) logging started Fri Dec  8 20:46:37 2017

Academic license - for non-commercial use only

Gurobi 7.5.1 (mac64, Python) logging started Fri Dec  8 20:47:39 2017

Academic license - for non-commercial use only

Gurobi 7.5.1 (mac64, Python) logging started Fri Dec  8 20:49:11 2017

Academic license - for non-commercial use only

Gurobi 7.5.1 (mac64, Python) logging started Fri Dec  8 20:50:29 2017

Academic license - for non-commercial use only

Gurobi 7.5.1 (mac64, Python) logging started Fri Dec  8 20:53:02 2017

Academic license - for non-commercial use only

Gurobi 7.5.1 (mac64, Python) logging started Fri Dec  8 20:54:12 2017

Academic license - for non-commercial use only

Gurobi 7.5.1 (mac64, Python) logging started Fri Dec  8 20:55:23 2017

Academic license - for non-commercial use only

Gurobi 7.5.1 (mac64, Python) logging started Fri Dec  8 20:57:38 2017

Academic license - for non-commercial use only

Gurobi 7.5.1 (mac64, Python) logging started Fri Dec  8 20:58:15 2017

Academic license - for non-commercial use only

Gurobi 7.5.1 (mac64, Python) logging started Fri Dec  8 20:59:31 2017

Academic license - for non-commercial use only

Gurobi 7.5.1 (mac64, Python) logging started Fri Dec  8 21:01:45 2017

Academic license - for non-commercial use only

Gurobi 7.5.1 (mac64, Python) logging started Fri Dec  8 21:02:57 2017

Academic license - for non-commercial use only

Gurobi 7.5.1 (mac64, Python) logging started Fri Dec  8 21:03:58 2017

Academic license - for non-commercial use only

Gurobi 7.5.1 (mac64, Python) logging started Fri Dec  8 21:06:25 2017

Academic license - for non-commercial use only

Gurobi 7.5.1 (mac64, Python) logging started Fri Dec  8 21:12:32 2017

Academic license - for non-commercial use only

Gurobi 7.5.1 (mac64, Python) logging started Fri Dec  8 21:13:01 2017

Academic license - for non-commercial use only

Gurobi 7.5.1 (mac64, Python) logging started Fri Dec  8 21:16:00 2017

Academic license - for non-commercial use only

Gurobi 7.5.1 (mac64, Python) logging started Fri Dec  8 21:19:03 2017

Academic license - for non-commercial use only

Gurobi 7.5.1 (mac64, Python) logging started Fri Dec  8 21:20:34 2017

Academic license - for non-commercial use only

Gurobi 7.5.1 (mac64, Python) logging started Fri Dec  8 21:22:45 2017

Academic license - for non-commercial use only

Gurobi 7.5.1 (mac64, Python) logging started Fri Dec  8 21:23:56 2017

Academic license - for non-commercial use only

Gurobi 7.5.1 (mac64, Python) logging started Fri Dec  8 21:24:48 2017

Academic license - for non-commercial use only

Gurobi 7.5.1 (mac64, Python) logging started Fri Dec  8 22:19:08 2017

Academic license - for non-commercial use only

Gurobi 7.5.1 (mac64, Python) logging started Fri Dec  8 22:24:01 2017

Academic license - for non-commercial use only

Gurobi 7.5.1 (mac64, Python) logging started Fri Dec  8 23:06:01 2017

Academic license - for non-commercial use only

Gurobi 7.5.1 (mac64, Python) logging started Sat Dec  9 09:26:01 2017

Academic license - for non-commercial use only

Gurobi 7.5.1 (mac64, Python) logging started Sat Dec  9 09:31:01 2017

Academic license - for non-commercial use only

Gurobi 7.5.1 (mac64, Python) logging started Sat Dec  9 09:32:03 2017

Academic license - for non-commercial use only

Gurobi 7.5.1 (mac64, Python) logging started Sat Dec  9 09:32:31 2017

Academic license - for non-commercial use only

Gurobi 7.5.1 (mac64, Python) logging started Sat Dec  9 09:34:50 2017

Academic license - for non-commercial use only

Gurobi 7.5.1 (mac64, Python) logging started Sat Dec  9 09:37:01 2017

Academic license - for non-commercial use only

Gurobi 7.5.1 (mac64, Python) logging started Sat Dec  9 09:46:01 2017

Academic license - for non-commercial use only

Gurobi 7.5.1 (mac64, Python) logging started Sat Dec  9 21:39:01 2017

Academic license - for non-commercial use only

Gurobi 7.5.1 (mac64, Python) logging started Mon Dec 11 16:10:01 2017

Academic license - for non-commercial use only

Gurobi 7.5.1 (mac64, Python) logging started Mon Dec 11 16:16:01 2017

Academic license - for non-commercial use only

Gurobi 7.5.1 (mac64, Python) logging started Mon Dec 11 16:20:01 2017

Academic license - for non-commercial use only

Gurobi 7.5.1 (mac64, Python) logging started Mon Dec 11 16:34:02 2017

Academic license - for non-commercial use only

Gurobi 7.5.1 (mac64, Python) logging started Thu Dec 14 15:09:01 2017

Academic license - for non-commercial use only

Gurobi 7.5.1 (mac64, Python) logging started Mon Dec 18 17:25:01 2017

Academic license - for non-commercial use only
